p cnf 280 375
-1 4 -2 53 55 57 58 63 177 227 -229 -230 -239 -242 -244 -247 -260 -261 -262 -266 -275 -276 -277 0 
-3 228 -229 -230 -239 -242 -244 -247 -260 -261 -262 -266 -275 -276 -277 0 
-4 1 228 -229 -230 -239 -242 -244 -247 -260 -261 -262 -266 -275 -276 -277 0 
-5 -4 1 227 -229 -230 -239 -242 -244 -247 -260 -261 -262 -266 -275 -276 -277 0 
-6 229 -230 -239 -242 -244 -247 -260 -261 -262 -266 -275 -276 -277 0 
-7 70 87 92 94 120 199 227 -229 -230 -239 -242 -244 -247 -260 -261 -262 -266 -275 -276 -277 0 
-8 50 84 96 135 164 170 187 195 225 -9 230 -229 -239 -242 -244 -247 -260 -261 -262 -266 -275 -276 -277 0 
-10 229 -230 -239 -242 -244 -247 -260 -261 -262 -266 -275 -276 -277 0 
-11 28 38 46 73 231 -229 -230 -239 -242 -244 -247 -260 -261 -262 -266 -275 -276 -277 0 
-12 232 0 
-13 24 99 174 230 -229 -239 -242 -244 -247 -260 -261 -262 -266 -275 -276 -277 0 
-14 42 52 93 103 116 127 133 134 145 173 184 188 192 197 224 227 -229 -230 -239 -242 -244 -247 -260 -261 -262 -266 -275 -276 -277 0 
-15 34 90 91 130 140 181 203 -16 229 -230 -239 -242 -244 -247 -260 -261 -262 -266 -275 -276 -277 0 
-17 19 227 -229 -230 -239 -242 -244 -247 -260 -261 -262 -266 -275 -276 -277 0 
-18 77 232 0 
-1 4 232 0 
-17 19 227 -229 -230 -239 -242 -244 -247 -260 -261 -262 -266 -275 -276 -277 0 
-19 17 229 -230 -239 -242 -244 -247 -260 -261 -262 -266 -275 -276 -277 0 
-20 -11 28 38 46 73 233 0 
-21 -22 30 32 234 -229 -230 -239 -242 -244 -247 -260 -261 -262 -266 -275 -276 -277 0 
-23 33 104 117 163 209 -24 13 99 174 235 -229 -230 -239 -242 -244 -247 -260 -261 -262 -266 -275 -276 -277 0 
-25 44 74 79 109 136 148 153 185 186 202 208 211 236 -229 -230 -239 -242 -244 -247 -260 -261 -262 -266 -275 -276 -277 0 
-26 36 49 141 154 172 201 212 217 223 227 -229 -230 -239 -242 -244 -247 -260 -261 -262 -266 -275 -276 -277 0 
-27 -28 11 38 46 73 227 -229 -230 -239 -242 -244 -247 -260 -261 -262 -266 -275 -276 -277 0 
-29 143 152 236 -229 -230 -239 -242 -244 -247 -260 -261 -262 -266 -275 -276 -277 0 
-30 22 32 -27 -31 227 -229 -230 -239 -242 -244 -247 -260 -261 -262 -266 -275 -276 -277 0 
-32 22 30 229 -230 -239 -242 -244 -247 -260 -261 -262 -266 -275 -276 -277 0 
-25 44 74 79 109 136 148 153 185 186 202 208 211 -33 23 104 117 163 209 227 -229 -230 -239 -242 -244 -247 -260 -261 -262 -266 -275 -276 -277 0 
-25 44 74 79 109 136 148 153 185 186 202 208 211 -34 15 90 91 130 140 181 203 227 -229 -230 -239 -242 -244 -247 -260 -261 -262 -266 -275 -276 -277 0 
-19 17 232 0 
-35 229 -230 -239 -242 -244 -247 -260 -261 -262 -266 -275 -276 -277 0 
-36 26 49 141 154 172 201 212 217 223 229 -230 -239 -242 -244 -247 -260 -261 -262 -266 -275 -276 -277 0 
-37 48 51 82 95 107 108 129 138 144 162 166 169 171 182 183 198 -38 11 28 46 73 232 0 
-39 235 -229 -230 -239 -242 -244 -247 -260 -261 -262 -266 -275 -276 -277 0 
-40 83 -41 235 -229 -230 -239 -242 -244 -247 -260 -261 -262 -266 -275 -276 -277 0 
-42 14 52 93 103 116 127 133 134 145 173 184 188 192 197 224 227 -229 -230 -239 -242 -244 -247 -260 -261 -262 -266 -275 -276 -277 0 
-43 85 98 106 168 219 237 -229 -230 -239 -242 -244 -247 -260 -261 -262 -266 -275 -276 -277 0 
-44 25 74 79 109 136 148 153 185 186 202 208 211 238 -229 -230 -239 -242 -244 -247 -260 -261 -262 -266 -275 -276 -277 0 
-18 77 -45 227 -229 -230 -239 -242 -244 -247 -260 -261 -262 -266 -275 -276 -277 0 
-41 -46 11 28 38 73 227 -229 -230 -239 -242 -244 -247 -260 -261 -262 -266 -275 -276 -277 0 
-47 227 -229 -230 -239 -242 -244 -247 -260 -261 -262 -266 -275 -276 -277 0 
-41 -27 227 -229 -230 -239 -242 -244 -247 -260 -261 -262 -266 -275 -276 -277 0 
-48 37 51 82 95 107 108 129 138 144 162 166 169 171 182 183 198 232 0 
-49 26 36 141 154 172 201 212 217 223 -50 8 84 96 135 164 170 187 195 225 239 -229 -230 -242 -244 -247 -260 -261 -262 -266 -275 -276 -277 0 
-51 37 48 82 95 107 108 129 138 144 162 166 169 171 182 183 198 227 -229 -230 -239 -242 -244 -247 -260 -261 -262 -266 -275 -276 -277 0 
-41 -27 227 -229 -230 -239 -242 -244 -247 -260 -261 -262 -266 -275 -276 -277 0 
-52 14 42 93 103 116 127 133 134 145 173 184 188 192 197 224 232 0 
-53 2 55 57 58 63 177 -4 1 227 -229 -230 -239 -242 -244 -247 -260 -261 -262 -266 -275 -276 -277 0 
-54 -2 53 55 57 58 63 177 227 -229 -230 -239 -242 -244 -247 -260 -261 -262 -266 -275 -276 -277 0 
-54 -55 2 53 57 58 63 177 227 -229 -230 -239 -242 -244 -247 -260 -261 -262 -266 -275 -276 -277 0 
-56 -4 1 227 -229 -230 -239 -242 -244 -247 -260 -261 -262 -266 -275 -276 -277 0 
-1 4 -57 2 53 55 58 63 177 227 -229 -230 -239 -242 -244 -247 -260 -261 -262 -266 -275 -276 -277 0 
-5 -58 2 53 55 57 63 177 227 -229 -230 -239 -242 -244 -247 -260 -261 -262 -266 -275 -276 -277 0 
-57 2 53 55 58 63 177 227 -229 -230 -239 -242 -244 -247 -260 -261 -262 -266 -275 -276 -277 0 
-55 2 53 57 58 63 177 228 -229 -230 -239 -242 -244 -247 -260 -261 -262 -266 -275 -276 -277 0 
-55 2 53 57 58 63 177 227 -229 -230 -239 -242 -244 -247 -260 -261 -262 -266 -275 -276 -277 0 
-58 2 53 55 57 63 177 227 -229 -230 -239 -242 -244 -247 -260 -261 -262 -266 -275 -276 -277 0 
-57 2 53 55 58 63 177 228 -229 -230 -239 -242 -244 -247 -260 -261 -262 -266 -275 -276 -277 0 
-58 2 53 55 57 63 177 228 -229 -230 -239 -242 -244 -247 -260 -261 -262 -266 -275 -276 -277 0 
-2 53 55 57 58 63 177 227 -229 -230 -239 -242 -244 -247 -260 -261 -262 -266 -275 -276 -277 0 
-2 53 55 57 58 63 177 228 -229 -230 -239 -242 -244 -247 -260 -261 -262 -266 -275 -276 -277 0 
-59 -60 167 228 -229 -230 -239 -242 -244 -247 -260 -261 -262 -266 -275 -276 -277 0 
-5 -59 -60 167 227 -229 -230 -239 -242 -244 -247 -260 -261 -262 -266 -275 -276 -277 0 
-57 2 53 55 58 63 177 -61 240 -229 -230 -239 -242 -244 -247 -260 -261 -262 -266 -275 -276 -277 0 
-18 77 -57 2 53 55 58 63 177 227 -229 -230 -239 -242 -244 -247 -260 -261 -262 -266 -275 -276 -277 0 
-12 -55 2 53 57 58 63 177 227 -229 -230 -239 -242 -244 -247 -260 -261 -262 -266 -275 -276 -277 0 
-62 228 -229 -230 -239 -242 -244 -247 -260 -261 -262 -266 -275 -276 -277 0 
-5 -63 2 53 55 57 58 177 227 -229 -230 -239 -242 -244 -247 -260 -261 -262 -266 -275 -276 -277 0 
-54 -4 1 227 -229 -230 -239 -242 -244 -247 -260 -261 -262 -266 -275 -276 -277 0 
-5 -63 2 53 55 57 58 177 228 -229 -230 -239 -242 -244 -247 -260 -261 -262 -266 -275 -276 -277 0 
-63 2 53 55 57 58 177 227 -229 -230 -239 -242 -244 -247 -260 -261 -262 -266 -275 -276 -277 0 
-5 -57 2 53 55 58 63 177 227 -229 -230 -239 -242 -244 -247 -260 -261 -262 -266 -275 -276 -277 0 
-57 2 53 55 58 63 177 227 -229 -230 -239 -242 -244 -247 -260 -261 -262 -266 -275 -276 -277 0 
-58 2 53 55 57 63 177 227 -229 -230 -239 -242 -244 -247 -260 -261 -262 -266 -275 -276 -277 0 
-53 2 55 57 58 63 177 -4 1 228 -229 -230 -239 -242 -244 -247 -260 -261 -262 -266 -275 -276 -277 0 
-62 -64 228 -229 -230 -239 -242 -244 -247 -260 -261 -262 -266 -275 -276 -277 0 
-59 -65 228 -229 -230 -239 -242 -244 -247 -260 -261 -262 -266 -275 -276 -277 0 
-62 227 -229 -230 -239 -242 -244 -247 -260 -261 -262 -266 -275 -276 -277 0 
-4 1 227 -229 -230 -239 -242 -244 -247 -260 -261 -262 -266 -275 -276 -277 0 
-66 227 -229 -230 -239 -242 -244 -247 -260 -261 -262 -266 -275 -276 -277 0 
-54 228 -229 -230 -239 -242 -244 -247 -260 -261 -262 -266 -275 -276 -277 0 
-5 -54 227 -229 -230 -239 -242 -244 -247 -260 -261 -262 -266 -275 -276 -277 0 
-67 97 227 -229 -230 -239 -242 -244 -247 -260 -261 -262 -266 -275 -276 -277 0 
-38 11 28 46 73 -33 23 104 117 163 209 232 0 
-68 -69 -70 7 87 92 94 120 199 227 -229 -230 -239 -242 -244 -247 -260 -261 -262 -266 -275 -276 -277 0 
-68 -71 -72 227 -229 -230 -239 -242 -244 -247 -260 -261 -262 -266 -275 -276 -277 0 
-73 11 28 38 46 227 -229 -230 -239 -242 -244 -247 -260 -261 -262 -266 -275 -276 -277 0 
-19 17 -74 25 44 79 109 136 148 153 185 186 202 208 211 227 -229 -230 -239 -242 -244 -247 -260 -261 -262 -266 -275 -276 -277 0 
-30 22 32 -19 17 -8 50 84 96 135 164 170 187 195 225 227 -229 -230 -239 -242 -244 -247 -260 -261 -262 -266 -275 -276 -277 0 
-1 4 -57 2 53 55 58 63 177 228 -229 -230 -239 -242 -244 -247 -260 -261 -262 -266 -275 -276 -277 0 
-5 -12 -60 167 227 -229 -230 -239 -242 -244 -247 -260 -261 -262 -266 -275 -276 -277 0 
-54 -58 2 53 55 57 63 177 227 -229 -230 -239 -242 -244 -247 -260 -261 -262 -266 -275 -276 -277 0 
-59 -75 76 228 -229 -230 -239 -242 -244 -247 -260 -261 -262 -266 -275 -276 -277 0 
-76 75 -58 2 53 55 57 63 177 228 -229 -230 -239 -242 -244 -247 -260 -261 -262 -266 -275 -276 -277 0 
-77 18 228 -229 -230 -239 -242 -244 -247 -260 -261 -262 -266 -275 -276 -277 0 
-74 25 44 79 109 136 148 153 185 186 202 208 211 -78 232 0 
-79 25 44 74 109 136 148 153 185 186 202 208 211 -38 11 28 46 73 -80 214 -81 241 -229 -230 -239 -242 -244 -247 -260 -261 -262 -266 -275 -276 -277 0 
-19 17 -27 232 0 
-42 14 52 93 103 116 127 133 134 145 173 184 188 192 197 224 -74 25 44 79 109 136 148 153 185 186 202 208 211 227 -229 -230 -239 -242 -244 -247 -260 -261 -262 -266 -275 -276 -277 0 
-12 -35 229 -230 -239 -242 -244 -247 -260 -261 -262 -266 -275 -276 -277 0 
-82 37 48 51 95 107 108 129 138 144 162 166 169 171 182 183 198 229 -230 -239 -242 -244 -247 -260 -261 -262 -266 -275 -276 -277 0 
-23 33 104 117 163 209 235 -229 -230 -239 -242 -244 -247 -260 -261 -262 -266 -275 -276 -277 0 
-17 19 -83 40 229 -230 -239 -242 -244 -247 -260 -261 -262 -266 -275 -276 -277 0 
-84 8 50 96 135 164 170 187 195 225 242 -229 -230 -239 -244 -247 -260 -261 -262 -266 -275 -276 -277 0 
-85 43 98 106 168 219 227 -229 -230 -239 -242 -244 -247 -260 -261 -262 -266 -275 -276 -277 0 
-86 227 -229 -230 -239 -242 -244 -247 -260 -261 -262 -266 -275 -276 -277 0 
-12 -87 7 70 92 94 120 199 -27 -88 242 -229 -230 -239 -244 -247 -260 -261 -262 -266 -275 -276 -277 0 
-86 242 -229 -230 -239 -244 -247 -260 -261 -262 -266 -275 -276 -277 0 
-89 227 -229 -230 -239 -242 -244 -247 -260 -261 -262 -266 -275 -276 -277 0 
-90 15 34 91 130 140 181 203 242 -229 -230 -239 -244 -247 -260 -261 -262 -266 -275 -276 -277 0 
-91 15 34 90 130 140 181 203 242 -229 -230 -239 -244 -247 -260 -261 -262 -266 -275 -276 -277 0 
-92 7 70 87 94 120 199 242 -229 -230 -239 -244 -247 -260 -261 -262 -266 -275 -276 -277 0 
-88 227 -229 -230 -239 -242 -244 -247 -260 -261 -262 -266 -275 -276 -277 0 
-93 14 42 52 103 116 127 133 134 145 173 184 188 192 197 224 227 -229 -230 -239 -242 -244 -247 -260 -261 -262 -266 -275 -276 -277 0 
-94 7 70 87 92 120 199 -68 243 -229 -230 -239 -242 -244 -247 -260 -261 -262 -266 -275 -276 -277 0 
-95 37 48 51 82 107 108 129 138 144 162 166 169 171 182 183 198 244 -229 -230 -239 -242 -247 -260 -261 -262 -266 -275 -276 -277 0 
-9 227 -229 -230 -239 -242 -244 -247 -260 -261 -262 -266 -275 -276 -277 0 
-18 77 -17 19 -27 227 -229 -230 -239 -242 -244 -247 -260 -261 -262 -266 -275 -276 -277 0 
-96 8 50 84 135 164 170 187 195 225 -76 75 -38 11 28 46 73 -97 67 227 -229 -230 -239 -242 -244 -247 -260 -261 -262 -266 -275 -276 -277 0 
-98 43 85 106 168 219 -99 13 24 174 231 -229 -230 -239 -242 -244 -247 -260 -261 -262 -266 -275 -276 -277 0 
-100 126 -101 113 125 213 243 -229 -230 -239 -242 -244 -247 -260 -261 -262 -266 -275 -276 -277 0 
-26 36 49 141 154 172 201 212 217 223 232 0 
-1 4 -26 36 49 141 154 172 201 212 217 223 -8 50 84 96 135 164 170 187 195 225 227 -229 -230 -239 -242 -244 -247 -260 -261 -262 -266 -275 -276 -277 0 
-102 236 -229 -230 -239 -242 -244 -247 -260 -261 -262 -266 -275 -276 -277 0 
-103 14 42 52 93 116 127 133 134 145 173 184 188 192 197 224 -104 23 33 117 163 209 -11 28 38 46 73 -81 -105 241 -229 -230 -239 -242 -244 -247 -260 -261 -262 -266 -275 -276 -277 0 
-106 43 85 98 168 219 -74 25 44 79 109 136 148 153 185 186 202 208 211 232 0 
-1 4 -30 22 32 -31 227 -229 -230 -239 -242 -244 -247 -260 -261 -262 -266 -275 -276 -277 0 
-107 37 48 51 82 95 108 129 138 144 162 166 169 171 182 183 198 -75 76 -74 25 44 79 109 136 148 153 185 186 202 208 211 227 -229 -230 -239 -242 -244 -247 -260 -261 -262 -266 -275 -276 -277 0 
-108 37 48 51 82 95 107 129 138 144 162 166 169 171 182 183 198 -42 14 52 93 103 116 127 133 134 145 173 184 188 192 197 224 -28 11 38 46 73 -109 25 44 74 79 136 148 153 185 186 202 208 211 238 -229 -230 -239 -242 -244 -247 -260 -261 -262 -266 -275 -276 -277 0 
-30 22 32 -35 229 -230 -239 -242 -244 -247 -260 -261 -262 -266 -275 -276 -277 0 
-1 4 -36 26 49 141 154 172 201 212 217 223 229 -230 -239 -242 -244 -247 -260 -261 -262 -266 -275 -276 -277 0 
-42 14 52 93 103 116 127 133 134 145 173 184 188 192 197 224 227 -229 -230 -239 -242 -244 -247 -260 -261 -262 -266 -275 -276 -277 0 
-75 76 232 0 
-110 122 123 245 -229 -230 -239 -242 -244 -247 -260 -261 -262 -266 -275 -276 -277 0 
-30 22 32 -75 76 -25 44 74 79 109 136 148 153 185 186 202 208 211 227 -229 -230 -239 -242 -244 -247 -260 -261 -262 -266 -275 -276 -277 0 
-111 237 -229 -230 -239 -242 -244 -247 -260 -261 -262 -266 -275 -276 -277 0 
-27 -74 25 44 79 109 136 148 153 185 186 202 208 211 227 -229 -230 -239 -242 -244 -247 -260 -261 -262 -266 -275 -276 -277 0 
-18 77 -112 232 0 
-113 101 125 213 243 -229 -230 -239 -242 -244 -247 -260 -261 -262 -266 -275 -276 -277 0 
-114 221 -44 25 74 79 109 136 148 153 185 186 202 208 211 238 -229 -230 -239 -242 -244 -247 -260 -261 -262 -266 -275 -276 -277 0 
-115 -43 85 98 106 168 219 237 -229 -230 -239 -242 -244 -247 -260 -261 -262 -266 -275 -276 -277 0 
-116 14 42 52 93 103 127 133 134 145 173 184 188 192 197 224 229 -230 -239 -242 -244 -247 -260 -261 -262 -266 -275 -276 -277 0 
-117 23 33 104 163 209 -101 113 125 213 243 -229 -230 -239 -242 -244 -247 -260 -261 -262 -266 -275 -276 -277 0 
-30 22 32 232 0 
-5 -57 2 53 55 58 63 177 228 -229 -230 -239 -242 -244 -247 -260 -261 -262 -266 -275 -276 -277 0 
-1 4 -58 2 53 55 57 63 177 228 -229 -230 -239 -242 -244 -247 -260 -261 -262 -266 -275 -276 -277 0 
-56 -63 2 53 55 57 58 177 228 -229 -230 -239 -242 -244 -247 -260 -261 -262 -266 -275 -276 -277 0 
-5 228 -229 -230 -239 -242 -244 -247 -260 -261 -262 -266 -275 -276 -277 0 
-118 124 -59 227 -229 -230 -239 -242 -244 -247 -260 -261 -262 -266 -275 -276 -277 0 
-62 -119 227 -229 -230 -239 -242 -244 -247 -260 -261 -262 -266 -275 -276 -277 0 
-1 4 -63 2 53 55 57 58 177 227 -229 -230 -239 -242 -244 -247 -260 -261 -262 -266 -275 -276 -277 0 
-65 -119 227 -229 -230 -239 -242 -244 -247 -260 -261 -262 -266 -275 -276 -277 0 
-56 -55 2 53 57 58 63 177 -59 227 -229 -230 -239 -242 -244 -247 -260 -261 -262 -266 -275 -276 -277 0 
-4 1 -59 228 -229 -230 -239 -242 -244 -247 -260 -261 -262 -266 -275 -276 -277 0 
-65 228 -229 -230 -239 -242 -244 -247 -260 -261 -262 -266 -275 -276 -277 0 
-63 2 53 55 57 58 177 228 -229 -230 -239 -242 -244 -247 -260 -261 -262 -266 -275 -276 -277 0 
-56 -57 2 53 55 58 63 177 227 -229 -230 -239 -242 -244 -247 -260 -261 -262 -266 -275 -276 -277 0 
-55 2 53 57 58 63 177 -59 228 -229 -230 -239 -242 -244 -247 -260 -261 -262 -266 -275 -276 -277 0 
-5 -4 1 -59 227 -229 -230 -239 -242 -244 -247 -260 -261 -262 -266 -275 -276 -277 0 
-1 4 -58 2 53 55 57 63 177 227 -229 -230 -239 -242 -244 -247 -260 -261 -262 -266 -275 -276 -277 0 
-5 -60 167 228 -229 -230 -239 -242 -244 -247 -260 -261 -262 -266 -275 -276 -277 0 
-12 -18 77 -60 167 227 -229 -230 -239 -242 -244 -247 -260 -261 -262 -266 -275 -276 -277 0 
-120 7 70 87 92 94 199 246 -229 -230 -239 -242 -244 -247 -260 -261 -262 -266 -275 -276 -277 0 
-121 -60 167 247 -229 -230 -239 -242 -244 -260 -261 -262 -266 -275 -276 -277 0 
-5 -54 248 -229 -230 -239 -242 -244 -247 -260 -261 -262 -266 -275 -276 -277 0 
-5 249 -176 0 
-1 4 250 -229 -230 -239 -242 -244 -247 -260 -261 -262 -266 -275 -276 -277 0 
-1 4 251 -229 -230 -239 -242 -244 -247 -260 -261 -262 -266 -275 -276 -277 0 
-1 4 252 -229 -230 -239 -242 -244 -247 -260 -261 -262 -266 -275 -276 -277 0 
-5 253 0 
-1 4 254 -229 -230 -239 -242 -244 -247 -260 -261 -262 -266 -275 -276 -277 0 
-4 1 255 -229 -230 -239 -242 -244 -247 -260 -261 -262 -266 -275 -276 -277 0 
-1 4 256 -229 -230 -239 -242 -244 -247 -260 -261 -262 -266 -275 -276 -277 0 
-37 48 51 82 95 107 108 129 138 144 162 166 169 171 182 183 198 229 -230 -239 -242 -244 -247 -260 -261 -262 -266 -275 -276 -277 0 
-122 110 123 245 -229 -230 -239 -242 -244 -247 -260 -261 -262 -266 -275 -276 -277 0 
-19 17 -18 77 232 0 
-123 110 122 237 -229 -230 -239 -242 -244 -247 -260 -261 -262 -266 -275 -276 -277 0 
-75 76 257 -229 -230 -239 -242 -244 -247 -260 -261 -262 -266 -275 -276 -277 0 
-124 118 -4 1 227 -229 -230 -239 -242 -244 -247 -260 -261 -262 -266 -275 -276 -277 0 
-75 76 228 -229 -230 -239 -242 -244 -247 -260 -261 -262 -266 -275 -276 -277 0 
-53 2 55 57 58 63 177 -75 76 227 -229 -230 -239 -242 -244 -247 -260 -261 -262 -266 -275 -276 -277 0 
-62 -59 227 -229 -230 -239 -242 -244 -247 -260 -261 -262 -266 -275 -276 -277 0 
-62 -59 228 -229 -230 -239 -242 -244 -247 -260 -261 -262 -266 -275 -276 -277 0 
-1 4 228 -229 -230 -239 -242 -244 -247 -260 -261 -262 -266 -275 -276 -277 0 
-73 11 28 38 46 -117 23 33 104 163 209 -125 101 113 213 258 -229 -230 -239 -242 -244 -247 -260 -261 -262 -266 -275 -276 -277 0 
-126 100 -86 -127 14 42 52 93 103 116 133 134 145 173 184 188 192 197 224 -73 11 28 38 46 243 -229 -230 -239 -242 -244 -247 -260 -261 -262 -266 -275 -276 -277 0 
-93 14 42 52 103 116 127 133 134 145 173 184 188 192 197 224 229 -230 -239 -242 -244 -247 -260 -261 -262 -266 -275 -276 -277 0 
-73 11 28 38 46 -101 113 125 213 243 -229 -230 -239 -242 -244 -247 -260 -261 -262 -266 -275 -276 -277 0 
-11 28 38 46 73 -128 131 231 -229 -230 -239 -242 -244 -247 -260 -261 -262 -266 -275 -276 -277 0 
-129 37 48 51 82 95 107 108 138 144 162 166 169 171 182 183 198 229 -230 -239 -242 -244 -247 -260 -261 -262 -266 -275 -276 -277 0 
-30 22 32 -75 76 227 -229 -230 -239 -242 -244 -247 -260 -261 -262 -266 -275 -276 -277 0 
-30 22 32 257 -229 -230 -239 -242 -244 -247 -260 -261 -262 -266 -275 -276 -277 0 
-130 15 34 90 91 140 181 203 229 -230 -239 -242 -244 -247 -260 -261 -262 -266 -275 -276 -277 0 
-12 -33 23 104 117 163 209 -79 25 44 74 109 136 148 153 185 186 202 208 211 227 -229 -230 -239 -242 -244 -247 -260 -261 -262 -266 -275 -276 -277 0 
-131 128 -73 11 28 38 46 243 -229 -230 -239 -242 -244 -247 -260 -261 -262 -266 -275 -276 -277 0 
-127 14 42 52 93 103 116 133 134 145 173 184 188 192 197 224 243 -229 -230 -239 -242 -244 -247 -260 -261 -262 -266 -275 -276 -277 0 
-12 -74 25 44 79 109 136 148 153 185 186 202 208 211 -9 227 -229 -230 -239 -242 -244 -247 -260 -261 -262 -266 -275 -276 -277 0 
-36 26 49 141 154 172 201 212 217 223 -132 235 -229 -230 -239 -242 -244 -247 -260 -261 -262 -266 -275 -276 -277 0 
-133 14 42 52 93 103 116 127 134 145 173 184 188 192 197 224 229 -230 -239 -242 -244 -247 -260 -261 -262 -266 -275 -276 -277 0 
-34 15 90 91 130 140 181 203 227 -229 -230 -239 -242 -244 -247 -260 -261 -262 -266 -275 -276 -277 0 
-134 14 42 52 93 103 116 127 133 145 173 184 188 192 197 224 236 -229 -230 -239 -242 -244 -247 -260 -261 -262 -266 -275 -276 -277 0 
-12 -37 48 51 82 95 107 108 129 138 144 162 166 169 171 182 183 198 -135 8 50 84 96 164 170 187 195 225 229 -230 -239 -242 -244 -247 -260 -261 -262 -266 -275 -276 -277 0 
-136 25 44 74 79 109 148 153 185 186 202 208 211 238 -229 -230 -239 -242 -244 -247 -260 -261 -262 -266 -275 -276 -277 0 
-137 227 -229 -230 -239 -242 -244 -247 -260 -261 -262 -266 -275 -276 -277 0 
-12 -20 -88 227 -229 -230 -239 -242 -244 -247 -260 -261 -262 -266 -275 -276 -277 0 
-18 77 -76 75 -138 37 48 51 82 95 107 108 129 144 162 166 169 171 182 183 198 227 -229 -230 -239 -242 -244 -247 -260 -261 -262 -266 -275 -276 -277 0 
-139 -76 75 227 -229 -230 -239 -242 -244 -247 -260 -261 -262 -266 -275 -276 -277 0 
-75 76 -140 15 34 90 91 130 181 203 229 -230 -239 -242 -244 -247 -260 -261 -262 -266 -275 -276 -277 0 
-139 227 -229 -230 -239 -242 -244 -247 -260 -261 -262 -266 -275 -276 -277 0 
-19 17 -55 2 53 57 58 63 177 229 -230 -239 -242 -244 -247 -260 -261 -262 -266 -275 -276 -277 0 
-12 -11 28 38 46 73 233 0 
-20 -139 227 -229 -230 -239 -242 -244 -247 -260 -261 -262 -266 -275 -276 -277 0 
-19 17 -141 26 36 49 154 172 201 212 217 223 233 0 
-141 26 36 49 154 172 201 212 217 223 -75 76 233 0 
-22 30 32 259 0 
-22 30 32 227 -229 -230 -239 -242 -244 -247 -260 -261 -262 -266 -275 -276 -277 0 
-12 -142 232 0 
-141 26 36 49 154 172 201 212 217 223 -17 19 232 0 
-75 76 -1 4 229 -230 -239 -242 -244 -247 -260 -261 -262 -266 -275 -276 -277 0 
-27 -75 76 -8 50 84 96 135 164 170 187 195 225 227 -229 -230 -239 -242 -244 -247 -260 -261 -262 -266 -275 -276 -277 0 
-143 29 152 -46 11 28 38 73 232 0 
-108 37 48 51 82 95 107 129 138 144 162 166 169 171 182 183 198 227 -229 -230 -239 -242 -244 -247 -260 -261 -262 -266 -275 -276 -277 0 
-26 36 49 141 154 172 201 212 217 223 257 -229 -230 -239 -242 -244 -247 -260 -261 -262 -266 -275 -276 -277 0 
-101 113 125 213 243 -229 -230 -239 -242 -244 -247 -260 -261 -262 -266 -275 -276 -277 0 
-76 75 -35 229 -230 -239 -242 -244 -247 -260 -261 -262 -266 -275 -276 -277 0 
-73 11 28 38 46 227 -229 -230 -239 -242 -244 -247 -260 -261 -262 -266 -275 -276 -277 0 
-18 77 -106 43 85 98 168 219 229 -230 -239 -242 -244 -247 -260 -261 -262 -266 -275 -276 -277 0 
-12 -26 36 49 141 154 172 201 212 217 223 -8 50 84 96 135 164 170 187 195 225 227 -229 -230 -239 -242 -244 -247 -260 -261 -262 -266 -275 -276 -277 0 
-144 37 48 51 82 95 107 108 129 138 162 166 169 171 182 183 198 236 -229 -230 -239 -242 -244 -247 -260 -261 -262 -266 -275 -276 -277 0 
-108 37 48 51 82 95 107 129 138 144 162 166 169 171 182 183 198 -18 77 232 0 
-107 37 48 51 82 95 108 129 138 144 162 166 169 171 182 183 198 -19 17 -74 25 44 79 109 136 148 153 185 186 202 208 211 227 -229 -230 -239 -242 -244 -247 -260 -261 -262 -266 -275 -276 -277 0 
-36 26 49 141 154 172 201 212 217 223 -74 25 44 79 109 136 148 153 185 186 202 208 211 232 0 
-145 14 42 52 93 103 116 127 133 134 173 184 188 192 197 224 -38 11 28 46 73 -104 23 33 117 163 209 -80 214 -68 241 -229 -230 -239 -242 -244 -247 -260 -261 -262 -266 -275 -276 -277 0 
-146 -73 11 28 38 46 227 -229 -230 -239 -242 -244 -247 -260 -261 -262 -266 -275 -276 -277 0 
-147 -73 11 28 38 46 227 -229 -230 -239 -242 -244 -247 -260 -261 -262 -266 -275 -276 -277 0 
-148 25 44 74 79 109 136 153 185 186 202 208 211 -68 -104 23 33 117 163 209 -149 241 -229 -230 -239 -242 -244 -247 -260 -261 -262 -266 -275 -276 -277 0 
-150 260 -229 -230 -239 -242 -244 -247 -261 -262 -266 -275 -276 -277 0 
-151 229 -230 -239 -242 -244 -247 -260 -261 -262 -266 -275 -276 -277 0 
-80 214 -68 -148 25 44 74 79 109 136 153 185 186 202 208 211 -103 14 42 52 93 116 127 133 134 145 173 184 188 192 197 224 241 -229 -230 -239 -242 -244 -247 -260 -261 -262 -266 -275 -276 -277 0 
-152 29 143 227 -229 -230 -239 -242 -244 -247 -260 -261 -262 -266 -275 -276 -277 0 
-153 25 44 74 79 109 136 148 185 186 202 208 211 -154 26 36 49 141 172 201 212 217 223 227 -229 -230 -239 -242 -244 -247 -260 -261 -262 -266 -275 -276 -277 0 
-155 156 157 261 -229 -230 -239 -242 -244 -247 -260 -262 -266 -275 -276 -277 0 
-156 155 157 261 -229 -230 -239 -242 -244 -247 -260 -262 -266 -275 -276 -277 0 
-157 155 156 262 -229 -230 -239 -242 -244 -247 -260 -261 -266 -275 -276 -277 0 
-80 214 -158 -159 241 -229 -230 -239 -242 -244 -247 -260 -261 -262 -266 -275 -276 -277 0 
-160 227 -229 -230 -239 -242 -244 -247 -260 -261 -262 -266 -275 -276 -277 0 
-79 25 44 74 109 136 148 153 185 186 202 208 211 -80 214 -11 28 38 46 73 -158 241 -229 -230 -239 -242 -244 -247 -260 -261 -262 -266 -275 -276 -277 0 
-161 -162 37 48 51 82 95 107 108 129 138 144 166 169 171 182 183 198 241 -229 -230 -239 -242 -244 -247 -260 -261 -262 -266 -275 -276 -277 0 
-163 23 33 104 117 209 227 -229 -230 -239 -242 -244 -247 -260 -261 -262 -266 -275 -276 -277 0 
-164 8 50 84 96 135 170 187 195 225 229 -230 -239 -242 -244 -247 -260 -261 -262 -266 -275 -276 -277 0 
-165 227 -229 -230 -239 -242 -244 -247 -260 -261 -262 -266 -275 -276 -277 0 
-166 37 48 51 82 95 107 108 129 138 144 162 169 171 182 183 198 263 -229 -230 -239 -242 -244 -247 -260 -261 -262 -266 -275 -276 -277 0 
-77 18 -61 240 -229 -230 -239 -242 -244 -247 -260 -261 -262 -266 -275 -276 -277 0 
-60 167 264 0 
-60 167 229 -230 -239 -242 -244 -247 -260 -261 -262 -266 -275 -276 -277 0 
-60 167 265 0 
-167 60 -60 167 266 -229 -230 -239 -242 -244 -247 -260 -261 -262 -275 -276 -277 0 
-103 14 42 52 93 116 127 133 134 145 173 184 188 192 197 224 -104 23 33 117 163 209 -81 241 -229 -230 -239 -242 -244 -247 -260 -261 -262 -266 -275 -276 -277 0 
-168 43 85 98 106 219 267 -229 -230 -239 -242 -244 -247 -260 -261 -262 -266 -275 -276 -277 0 
-169 37 48 51 82 95 107 108 129 138 144 162 166 171 182 183 198 -170 8 50 84 96 135 164 187 195 225 268 0 
-59 227 -229 -230 -239 -242 -244 -247 -260 -261 -262 -266 -275 -276 -277 0 
-56 -57 2 53 55 58 63 177 228 -229 -230 -239 -242 -244 -247 -260 -261 -262 -266 -275 -276 -277 0 
-1 4 -63 2 53 55 57 58 177 228 -229 -230 -239 -242 -244 -247 -260 -261 -262 -266 -275 -276 -277 0 
-59 269 -229 -230 -239 -242 -244 -247 -260 -261 -262 -266 -275 -276 -277 0 
-148 25 44 74 79 109 136 153 185 186 202 208 211 -143 29 152 232 0 
-79 25 44 74 109 136 148 153 185 186 202 208 211 -171 37 48 51 82 95 107 108 129 138 144 162 166 169 182 183 198 -172 26 36 49 141 154 201 212 217 223 -173 14 42 52 93 103 116 127 133 134 145 184 188 192 197 224 -33 23 104 117 163 209 227 -229 -230 -239 -242 -244 -247 -260 -261 -262 -266 -275 -276 -277 0 
-97 67 -86 232 0 
-12 -174 13 24 99 -18 77 232 0 
-74 25 44 79 109 136 148 153 185 186 202 208 211 227 -229 -230 -239 -242 -244 -247 -260 -261 -262 -266 -275 -276 -277 0 
-175 204 205 227 -229 -230 -239 -242 -244 -247 -260 -261 -262 -266 -275 -276 -277 0 
-176 242 -229 -230 -239 -244 -247 -260 -261 -262 -266 -275 -276 -277 0 
-54 -4 1 228 -229 -230 -239 -242 -244 -247 -260 -261 -262 -266 -275 -276 -277 0 
-3 -59 227 -229 -230 -239 -242 -244 -247 -260 -261 -262 -266 -275 -276 -277 0 
-4 1 -59 227 -229 -230 -239 -242 -244 -247 -260 -261 -262 -266 -275 -276 -277 0 
-65 227 -229 -230 -239 -242 -244 -247 -260 -261 -262 -266 -275 -276 -277 0 
-177 2 53 55 57 58 63 227 -229 -230 -239 -242 -244 -247 -260 -261 -262 -266 -275 -276 -277 0 
-5 -54 -60 167 227 -229 -230 -239 -242 -244 -247 -260 -261 -262 -266 -275 -276 -277 0 
-59 -60 167 227 -229 -230 -239 -242 -244 -247 -260 -261 -262 -266 -275 -276 -277 0 
-178 228 -229 -230 -239 -242 -244 -247 -260 -261 -262 -266 -275 -276 -277 0 
-54 -60 167 228 -229 -230 -239 -242 -244 -247 -260 -261 -262 -266 -275 -276 -277 0 
-179 227 -229 -230 -239 -242 -244 -247 -260 -261 -262 -266 -275 -276 -277 0 
-180 236 -229 -230 -239 -242 -244 -247 -260 -261 -262 -266 -275 -276 -277 0 
-181 15 34 90 91 130 140 203 227 -229 -230 -239 -242 -244 -247 -260 -261 -262 -266 -275 -276 -277 0 
-76 75 232 0 
-182 37 48 51 82 95 107 108 129 138 144 162 166 169 171 183 198 268 0 
-183 37 48 51 82 95 107 108 129 138 144 162 166 169 171 182 198 -184 14 42 52 93 103 116 127 133 134 145 173 188 192 197 224 233 0 
-83 40 232 0 
-185 25 44 74 79 109 136 148 153 186 202 208 211 232 0 
-186 25 44 74 79 109 136 148 153 185 202 208 211 232 0 
-108 37 48 51 82 95 107 129 138 144 162 166 169 171 182 183 198 232 0 
-35 232 0 
-187 8 50 84 96 135 164 170 195 225 232 0 
-20 232 0 
-135 8 50 84 96 164 170 187 195 225 232 0 
-37 48 51 82 95 107 108 129 138 144 162 166 169 171 182 183 198 232 0 
-36 26 49 141 154 172 201 212 217 223 232 0 
-8 50 84 96 135 164 170 187 195 225 232 0 
-74 25 44 79 109 136 148 153 185 186 202 208 211 237 -229 -230 -239 -242 -244 -247 -260 -261 -262 -266 -275 -276 -277 0 
-1 4 -20 -112 232 0 
-25 44 74 79 109 136 148 153 185 186 202 208 211 232 0 
-17 19 229 -230 -239 -242 -244 -247 -260 -261 -262 -266 -275 -276 -277 0 
-18 77 -106 43 85 98 168 219 -12 232 0 
-17 19 -12 -106 43 85 98 168 219 -76 75 232 0 
-188 14 42 52 93 103 116 127 133 134 145 173 184 192 197 224 229 -230 -239 -242 -244 -247 -260 -261 -262 -266 -275 -276 -277 0 
-12 -1 4 -20 -18 77 232 0 
-40 83 229 -230 -239 -242 -244 -247 -260 -261 -262 -266 -275 -276 -277 0 
-20 270 -229 -230 -239 -242 -244 -247 -260 -261 -262 -266 -275 -276 -277 0 
-189 -190 271 -229 -230 -239 -242 -244 -247 -260 -261 -262 -266 -275 -276 -277 0 
-5 -191 -69 232 0 
-192 14 42 52 93 103 116 127 133 134 145 173 184 188 197 224 233 0 
-193 -86 268 0 
-102 232 0 
-5 -102 -1 4 232 0 
-75 76 233 0 
-153 25 44 74 79 109 136 148 185 186 202 208 211 232 0 
-151 232 0 
-151 -194 268 0 
-35 235 -229 -230 -239 -242 -244 -247 -260 -261 -262 -266 -275 -276 -277 0 
-75 76 272 -229 -230 -239 -242 -244 -247 -260 -261 -262 -266 -275 -276 -277 0 
-143 29 152 232 0 
-69 -30 22 32 232 0 
-195 8 50 84 96 135 164 170 187 225 232 0 
-76 75 -83 40 229 -230 -239 -242 -244 -247 -260 -261 -262 -266 -275 -276 -277 0 
-76 75 -151 229 -230 -239 -242 -244 -247 -260 -261 -262 -266 -275 -276 -277 0 
-2 53 55 57 58 63 177 273 -229 -230 -239 -242 -244 -247 -260 -261 -262 -266 -275 -276 -277 0 
-1 4 -2 53 55 57 58 63 177 274 0 
-164 8 50 84 96 135 170 187 195 225 -196 229 -230 -239 -242 -244 -247 -260 -261 -262 -266 -275 -276 -277 0 
-197 14 42 52 93 103 116 127 133 134 145 173 184 188 192 224 227 -229 -230 -239 -242 -244 -247 -260 -261 -262 -266 -275 -276 -277 0 
-198 37 48 51 82 95 107 108 129 138 144 162 166 169 171 182 183 229 -230 -239 -242 -244 -247 -260 -261 -262 -266 -275 -276 -277 0 
-199 7 70 87 92 94 120 275 -229 -230 -239 -242 -244 -247 -260 -261 -262 -266 -276 -277 0 
-9 232 0 
-200 -201 26 36 49 141 154 172 212 217 223 -202 25 44 74 79 109 136 148 153 185 186 208 211 227 -229 -230 -239 -242 -244 -247 -260 -261 -262 -266 -275 -276 -277 0 
-1 4 -201 26 36 49 141 154 172 212 217 223 232 0 
-203 15 34 90 91 130 140 181 276 -229 -230 -239 -242 -244 -247 -260 -261 -262 -266 -275 -277 0 
-204 175 205 229 -230 -239 -242 -244 -247 -260 -261 -262 -266 -275 -276 -277 0 
-205 175 204 236 -229 -230 -239 -242 -244 -247 -260 -261 -262 -266 -275 -276 -277 0 
-206 229 -230 -239 -242 -244 -247 -260 -261 -262 -266 -275 -276 -277 0 
-5 -59 269 -229 -230 -239 -242 -244 -247 -260 -261 -262 -266 -275 -276 -277 0 
-59 257 -229 -230 -239 -242 -244 -247 -260 -261 -262 -266 -275 -276 -277 0 
-207 277 -229 -230 -239 -242 -244 -247 -260 -261 -262 -266 -275 -276 0 
-104 23 33 117 163 209 -103 14 42 52 93 116 127 133 134 145 173 184 188 192 197 224 241 -229 -230 -239 -242 -244 -247 -260 -261 -262 -266 -275 -276 -277 0 
-106 43 85 98 168 219 -38 11 28 46 73 232 0 
-208 25 44 74 79 109 136 148 153 185 186 202 211 227 -229 -230 -239 -242 -244 -247 -260 -261 -262 -266 -275 -276 -277 0 
-209 23 33 104 117 163 227 -229 -230 -239 -242 -244 -247 -260 -261 -262 -266 -275 -276 -277 0 
-210 -1 4 232 0 
-210 -211 25 44 74 79 109 136 148 153 185 186 202 208 -27 227 -229 -230 -239 -242 -244 -247 -260 -261 -262 -266 -275 -276 -277 0 
-212 26 36 49 141 154 172 201 217 223 232 0 
-17 19 232 0 
-129 37 48 51 82 95 107 108 138 144 162 166 169 171 182 183 198 -25 44 74 79 109 136 148 153 185 186 202 208 211 -93 14 42 52 103 116 127 133 134 145 173 184 188 192 197 224 -126 100 -213 101 113 125 243 -229 -230 -239 -242 -244 -247 -260 -261 -262 -266 -275 -276 -277 0 
-214 80 -12 -18 77 -105 -81 241 -229 -230 -239 -242 -244 -247 -260 -261 -262 -266 -275 -276 -277 0 
-27 232 0 
-103 14 42 52 93 116 127 133 134 145 173 184 188 192 197 224 -158 -68 -162 37 48 51 82 95 107 108 129 138 144 166 169 171 182 183 198 241 -229 -230 -239 -242 -244 -247 -260 -261 -262 -266 -275 -276 -277 0 
-215 243 -229 -230 -239 -242 -244 -247 -260 -261 -262 -266 -275 -276 -277 0 
-127 14 42 52 93 103 116 133 134 145 173 184 188 192 197 224 -73 11 28 38 46 243 -229 -230 -239 -242 -244 -247 -260 -261 -262 -266 -275 -276 -277 0 
-28 11 38 46 73 -136 25 44 74 79 109 148 153 185 186 202 208 211 238 -229 -230 -239 -242 -244 -247 -260 -261 -262 -266 -275 -276 -277 0 
-38 11 28 46 73 -133 14 42 52 93 103 116 127 134 145 173 184 188 192 197 224 229 -230 -239 -242 -244 -247 -260 -261 -262 -266 -275 -276 -277 0 
-216 -68 -11 28 38 46 73 246 -229 -230 -239 -242 -244 -247 -260 -261 -262 -266 -275 -276 -277 0 
-12 -18 77 -214 80 -105 241 -229 -230 -239 -242 -244 -247 -260 -261 -262 -266 -275 -276 -277 0 
-134 14 42 52 93 103 116 127 133 145 173 184 188 192 197 224 -217 26 36 49 141 154 172 201 212 223 236 -229 -230 -239 -242 -244 -247 -260 -261 -262 -266 -275 -276 -277 0 
-76 75 278 -229 -230 -239 -242 -244 -247 -260 -261 -262 -266 -275 -276 -277 0 
-218 -219 43 85 98 106 168 -220 -68 279 -229 -230 -239 -242 -244 -247 -260 -261 -262 -266 -275 -276 -277 0 
-1 4 -137 227 -229 -230 -239 -242 -244 -247 -260 -261 -262 -266 -275 -276 -277 0 
-186 25 44 74 79 109 136 148 153 185 202 208 211 227 -229 -230 -239 -242 -244 -247 -260 -261 -262 -266 -275 -276 -277 0 
-221 114 227 -229 -230 -239 -242 -244 -247 -260 -261 -262 -266 -275 -276 -277 0 
-26 36 49 141 154 172 201 212 217 223 -74 25 44 79 109 136 148 153 185 186 202 208 211 227 -229 -230 -239 -242 -244 -247 -260 -261 -262 -266 -275 -276 -277 0 
-30 22 32 -36 26 49 141 154 172 201 212 217 223 229 -230 -239 -242 -244 -247 -260 -261 -262 -266 -275 -276 -277 0 
-108 37 48 51 82 95 107 129 138 144 162 166 169 171 182 183 198 -12 232 0 
-1 4 -35 229 -230 -239 -242 -244 -247 -260 -261 -262 -266 -275 -276 -277 0 
-222 -162 37 48 51 82 95 107 108 129 138 144 166 169 171 182 183 198 241 -229 -230 -239 -242 -244 -247 -260 -261 -262 -266 -275 -276 -277 0 
-51 37 48 82 95 107 108 129 138 144 162 166 169 171 182 183 198 -223 26 36 49 141 154 172 201 212 217 -45 -224 14 42 52 93 103 116 127 133 134 145 173 184 188 192 197 -11 28 38 46 73 280 -229 -230 -239 -242 -244 -247 -260 -261 -262 -266 -275 -276 -277 0 
-12 -106 43 85 98 168 219 -18 77 232 0 
-158 -79 25 44 74 109 136 148 153 185 186 202 208 211 -145 14 42 52 93 103 116 127 133 134 173 184 188 192 197 224 -159 241 -229 -230 -239 -242 -244 -247 -260 -261 -262 -266 -275 -276 -277 0 
-105 229 -230 -239 -242 -244 -247 -260 -261 -262 -266 -275 -276 -277 0 
-76 75 -225 8 50 84 96 135 164 170 187 195 229 -230 -239 -242 -244 -247 -260 -261 -262 -266 -275 -276 -277 0 
-121 -226 247 -229 -230 -239 -242 -244 -260 -261 -262 -266 -275 -276 -277 0 
